command: cadical -w results/20260401/repair_liftability/step3_cnfs/n2_m5/asymm_un_minlib_no_cycle4/test.model.txt results/20260401/repair_liftability/step3_cnfs/n2_m5/asymm_un_minlib_no_cycle4/test.cnf
return_code: 20
duration_sec: 0.685792
----- STDOUT -----
c --- [ banner ] -------------------------------------------------------------
c 
c CaDiCaL SAT Solver
c Copyright (c) 2016-2025
c A. Biere, M. Fleury, N. Froleyks, K. Fazekas, F. Pollitt, T. Faller
c JKU Linz, University of Freiburg, TU Wien
c 
c Version 3.0.0
c Apple clang version 17.0.0 (clang-1700.6.3.2) -Wall -Wextra -O3 -DNDEBUG -DNCLOSEFROM
c Tue Dec 23 21:53:37 UTC 2025 Darwin Sequoia-arm64.local 24.6.0 arm64
c 
c --- [ parsing input ] ------------------------------------------------------
c 
c reading DIMACS file from 'results/20260401/repair_liftability/step3_cnfs/n2_m5/asymm_un_minlib_no_cycle4/test.cnf'
c opening file to read 'results/20260401/repair_liftability/step3_cnfs/n2_m5/asymm_un_minlib_no_cycle4/test.cnf'
c found 'p cnf 288041 2664003' header
c parsed 2664003 clauses in 0.52 seconds process time
c 
c --- [ options ] ------------------------------------------------------------
c 
c all options are set to their default value
c 
c --- [ solving ] ------------------------------------------------------------
c 
c time measured in process time since initialization
c 
c  seconds  reduction conflicts       size tier2        variables
c         MB    restarts   redundant    glue  trail           remaining
c          level     rate       size/glu tier1  irredundant
c 
c *  0.52  0  0 0   0  0    0    0 0.0 0 0 2 6  0% 972002 144040 50%
c l  0.57  0  0 0   0  0    0    0 0.0 1 0 2 6 55% 972002 128748 45%
c 0  0.57  0  0 0   0  0    0    0 0.0 1 0 2 6 55% 972002 128748 45%
c 
c --- [ result ] -------------------------------------------------------------
c 
c writing result to 'results/20260401/repair_liftability/step3_cnfs/n2_m5/asymm_un_minlib_no_cycle4/test.model.txt'
c 
c --- [ run-time profiling ] -------------------------------------------------
c 
c process time taken by individual solving procedures
c (percentage relative to process time for solving)
c 
c         0.52 1002.87% parse
c         0.05   99.94% lucky
c         0.05   99.94% search
c         0.00    0.00% simplify
c   =================================
c         0.05    9.06% solve
c 
c last line shows process time for solving
c (percentage relative to total process time)
c 
c --- [ statistics ] ---------------------------------------------------------
c 
c fixed:                    159293        55.30 %  of all variables
c learned_lits:                 19       100.00 %  learned literals
c minimized:                     0         0.00 %  learned literals
c shrunken:                      0         0.00 %  learned literals
c minishrunken:                  0         0.00 %  learned literals
c propagations:             144001         2.78 M  per second
c ticks:                    288001         2.00    propagation
c 
c seconds are measured in process time for solving
c 
c --- [ glue usage ] ---------------------------------------------------------
c 
c focused glue 2 used 0 clauses 0.000% accumulated 0.000% tier1
c focused glue 3 used 0 clauses 0.000% accumulated 0.000%
c focused glue 4 used 0 clauses 0.000% accumulated 0.000%
c focused glue 5 used 0 clauses 0.000% accumulated 0.000%
c focused glue 6 used 0 clauses 0.000% accumulated 0.000% tier2
c 
c stable glue 2 used 0 clauses 0.000% accumulated 0.000% tier1
c stable glue 3 used 0 clauses 0.000% accumulated 0.000%
c stable glue 4 used 0 clauses 0.000% accumulated 0.000%
c stable glue 5 used 0 clauses 0.000% accumulated 0.000%
c stable glue 6 used 0 clauses 0.000% accumulated 0.000% tier2
c 
c 
c --- [ resources ] ----------------------------------------------------------
c 
c total process time since initialization:         0.57    seconds
c total real time since initialization:            0.59    seconds
c maximum resident set size of process:       150640.00    MB
c 
c --- [ shutting down ] ------------------------------------------------------
c 
c exit 20
----- STDERR -----
